p wcnf 3000 300 1
1 1 0
1 2 0
1 3 0
1 4 0
1 5 0
1 6 0
1 7 0
1 8 0
1 9 0
1 10 0
1 11 0
1 12 0
1 13 0
1 14 0
1 15 0
1 1 1 1 1 1 1 1 1 1 1 1 1 1 1 0
1 2 2 2 2 2 2 2 2 2 2 2 2 2 2 0
1 2 2 2 2 2 2 2 2 2 2 2 2 2 2 0
1 3 3 3 3 3 3 3 3 3 3 3 3 3 3 0
1 3 3 3 3 3 3 3 3 4 4 4 4 4 4 0
1 4 4 4 4 4 4 4 4 4 4 4 4 4 4 0
1 4 4 5 5 5 5 5 5 5 5 5 5 5 5 0
1 5 5 5 5 5 5 5 5 5 5 6 6 6 6 0
1 6 6 6 6 6 6 6 6 6 6 6 6 6 6 0
1 6 6 6 6 6 7 7 7 7 7 7 7 7 7 0
1 7 7 7 7 7 7 7 7 7 7 7 7 7 7 0
1 7 7 7 7 7 7 7 8 8 8 8 8 8 8 0
1 8 8 8 8 8 8 8 8 8 8 8 8 8 8 0
1 8 8 9 9 9 9 9 9 9 9 9 9 9 9 0
1 9 9 9 9 9 9 9 9 9 9 9 9 9 9 0
1 9 9 9 10 10 10 10 10 10 10 10 10 10 10 0
1 10 10 10 10 10 10 10 10 10 10 10 11 11 11 0
1 11 11 11 11 11 11 11 11 11 11 11 11 11 11 0
1 11 11 11 11 11 11 11 11 11 11 11 11 11 12 0
1 12 12 12 12 12 12 12 12 12 12 12 12 12 12 0
1 12 12 12 12 12 12 12 12 12 12 12 12 13 13 0
1 13 13 13 13 13 13 13 13 13 13 13 13 13 13 0
1 13 13 13 13 13 13 13 13 13 13 13 13 13 13 0
1 13 13 13 13 13 13 13 14 14 14 14 14 14 14 0
1 14 14 14 14 14 14 14 14 14 14 14 14 14 14 0
1 14 15 15 15 15 15 15 15 15 15 15 15 15 15 0
1 15 15 15 15 15 15 15 15 15 15 15 15 15 15 0
1 15 15 15 15 15 16 16 16 16 16 16 16 16 16 0
1 16 16 16 16 16 16 16 16 16 16 16 16 16 16 0
1 16 16 16 16 16 16 16 16 16 16 17 17 17 17 0
1 17 17 17 17 17 17 17 17 17 17 17 17 17 17 0
1 17 17 17 17 17 17 17 17 17 17 17 18 18 18 0
1 18 18 18 18 18 18 18 18 18 18 18 18 18 18 0
1 18 18 18 18 18 18 18 18 18 18 18 19 19 19 0
1 19 19 19 19 19 19 19 19 19 19 19 19 19 19 0
1 19 19 19 19 19 19 19 20 20 20 20 20 20 20 0
1 20 20 20 20 20 20 20 20 20 20 20 20 20 20 0
1 20 20 20 20 20 20 20 20 20 20 21 21 21 21 0
1 21 21 21 21 21 21 21 21 21 21 21 21 21 21 0
1 21 21 21 21 21 21 21 21 21 21 21 21 21 22 0
1 22 22 22 22 22 22 22 22 22 22 22 22 22 22 0
1 22 22 22 22 22 22 22 22 22 22 22 22 22 22 0
1 22 22 22 22 22 22 22 22 22 22 23 23 23 23 0
1 23 23 23 23 23 23 23 23 23 23 23 23 23 23 0
1 23 23 23 23 23 23 23 23 23 23 23 23 23 24 0
1 24 24 24 24 24 24 24 24 24 24 24 24 24 24 0
1 24 24 24 24 24 24 24 24 24 24 24 24 24 24 0
1 24 24 24 24 24 24 25 25 25 25 25 25 25 25 0
1 25 25 25 25 25 25 25 25 25 25 25 25 25 25 0
1 25 25 25 25 25 25 26 26 26 26 26 26 26 26 0
1 26 26 26 26 26 26 26 26 26 26 26 26 26 26 0
1 26 26 26 26 26 26 26 27 27 27 27 27 27 27 0
1 27 27 27 27 27 27 27 27 27 27 27 27 27 27 0
1 27 27 27 27 27 28 28 28 28 28 28 28 28 28 0
1 28 28 28 28 28 28 28 28 28 28 28 28 28 28 0
1 28 28 28 28 28 28 28 28 28 28 28 29 29 29 0
1 29 29 29 29 29 29 29 29 29 29 29 29 29 29 0
1 29 29 29 29 29 30 30 30 30 30 30 30 30 30 0
1 30 30 30 30 30 30 30 30 30 30 30 30 30 30 0
1 31 31 31 31 31 31 31 31 31 31 31 31 31 31 0
1 31 31 31 31 31 31 32 32 32 32 32 32 32 32 0
1 32 32 32 32 32 32 32 32 32 32 32 32 32 32 0
1 32 32 32 32 32 32 32 32 32 32 32 32 32 32 0
1 33 33 33 33 33 33 33 33 33 33 33 33 33 33 0
1 33 33 33 33 33 33 33 33 33 33 33 33 33 33 0
1 33 33 33 33 33 33 33 33 33 33 33 33 33 34 0
1 34 34 34 34 34 34 34 34 34 34 34 34 34 34 0
1 34 34 34 34 34 34 34 34 34 34 34 34 34 35 0
1 35 35 35 35 35 35 35 35 35 35 35 35 35 35 0
1 35 35 35 35 35 35 35 35 35 35 35 35 35 35 0
1 35 35 36 36 36 36 36 36 36 36 36 36 36 36 0
1 36 36 36 36 36 36 36 36 36 36 36 36 36 36 0
1 37 37 37 37 37 37 37 37 37 37 37 37 37 37 0
1 37 37 37 37 37 37 37 37 37 37 37 37 37 37 0
1 38 38 38 38 38 38 38 38 38 38 38 38 38 38 0
1 38 38 38 38 38 38 38 38 38 38 38 38 38 38 0
1 38 38 38 39 39 39 39 39 39 39 39 39 39 39 0
1 39 39 39 39 39 39 39 39 39 39 39 39 39 39 0
1 40 40 40 40 40 40 40 40 40 40 40 40 40 40 0
1 40 40 40 40 40 40 40 41 41 41 41 41 41 41 0
1 41 41 41 41 41 41 41 41 41 41 41 41 41 41 0
1 41 41 41 41 41 41 41 41 41 42 42 42 42 42 0
1 42 42 42 42 42 42 42 42 42 42 42 42 42 42 0
1 42 42 42 42 42 43 43 43 43 43 43 43 43 43 0
1 43 43 43 43 43 43 43 43 43 43 43 43 43 43 0
1 43 43 43 43 43 43 43 43 44 44 44 44 44 44 0
1 44 44 44 44 44 44 44 44 44 44 44 44 44 44 0
1 44 44 44 44 44 44 44 44 44 44 44 44 44 45 0
1 45 45 45 45 45 45 45 45 45 45 45 45 45 45 0
1 45 45 45 45 45 45 45 45 45 46 46 46 46 46 0
1 46 46 46 46 46 46 46 46 46 46 46 46 46 46 0
1 46 46 46 46 46 46 46 46 47 47 47 47 47 47 0
1 47 47 47 47 47 47 47 47 47 47 47 47 47 47 0
1 47 47 47 47 47 47 48 48 48 48 48 48 48 48 0
1 48 48 48 48 48 48 48 48 48 48 48 48 48 48 0
1 48 48 48 48 49 49 49 49 49 49 49 49 49 49 0
1 49 49 49 49 49 49 49 49 49 49 49 49 49 49 0
1 49 49 50 50 50 50 50 50 50 50 50 50 50 50 0
1 50 50 50 50 50 50 50 50 50 50 50 50 50 50 0
1 50 50 50 50 51 51 51 51 51 51 51 51 51 51 0
1 51 51 51 51 51 51 51 51 51 51 51 51 51 51 0
1 52 52 52 52 52 52 52 52 52 52 52 52 52 52 0
1 52 52 52 52 52 52 52 52 53 53 53 53 53 53 0
1 53 53 53 53 53 53 53 53 53 53 53 53 53 53 0
1 53 53 53 53 53 53 54 54 54 54 54 54 54 54 0
1 54 54 54 54 54 54 54 54 54 54 54 54 54 54 0
1 54 54 54 54 54 54 55 55 55 55 55 55 55 55 0
1 55 55 55 55 55 55 55 55 55 55 55 55 55 55 0
1 55 55 55 55 55 55 56 56 56 56 56 56 56 56 0
1 56 56 56 56 56 56 56 56 56 56 56 56 56 56 0
1 56 56 56 56 57 57 57 57 57 57 57 57 57 57 0
1 57 57 57 57 57 57 57 57 57 57 57 57 57 57 0
1 57 57 57 57 57 57 57 57 58 58 58 58 58 58 0
1 58 58 58 58 58 58 58 58 58 58 58 58 58 58 0
1 58 58 58 58 58 58 58 59 59 59 59 59 59 59 0
1 59 59 59 59 59 59 59 59 59 59 59 59 59 59 0
1 59 59 59 59 59 60 60 60 60 60 60 60 60 60 0
1 60 60 60 60 60 60 60 60 60 60 60 60 60 60 0
1 60 60 60 60 60 60 60 60 61 61 61 61 61 61 0
1 61 61 61 61 61 61 61 61 61 61 61 61 61 61 0
1 61 61 61 61 61 61 61 61 61 62 62 62 62 62 0
1 62 62 62 62 62 62 62 62 62 62 62 62 62 62 0
1 62 62 62 62 62 63 63 63 63 63 63 63 63 63 0
1 63 63 63 63 63 63 63 63 63 63 63 63 63 63 0
1 63 63 63 63 63 63 63 63 63 63 63 63 64 64 0
1 64 64 64 64 64 64 64 64 64 64 64 64 64 64 0
1 64 64 64 64 64 64 64 64 64 65 65 65 65 65 0
1 65 65 65 65 65 65 65 65 65 65 65 65 65 65 0
1 65 65 65 65 65 66 66 66 66 66 66 66 66 66 0
1 66 66 66 66 66 66 66 66 66 66 66 66 66 66 0
1 66 66 66 66 66 67 67 67 67 67 67 67 67 67 0
1 67 67 67 67 67 67 67 67 67 67 67 67 67 67 0
1 67 67 67 67 67 67 68 68 68 68 68 68 68 68 0
1 68 68 68 68 68 68 68 68 68 68 68 68 68 68 0
1 68 68 69 69 69 69 69 69 69 69 69 69 69 69 0
1 69 69 69 69 69 69 69 69 69 69 69 69 69 70 0
1 70 70 70 70 70 70 70 70 70 70 70 70 70 70 0
1 70 70 70 70 70 70 70 70 70 70 70 70 70 70 0
1 70 70 70 70 70 70 70 70 71 71 71 71 71 71 0
1 71 71 71 71 71 71 71 71 71 71 71 71 71 71 0
1 71 71 71 71 71 71 71 71 71 71 71 72 72 72 0
1 72 72 72 72 72 72 72 72 72 72 72 72 72 72 0
1 72 72 72 72 72 72 72 72 73 73 73 73 73 73 0
1 73 73 73 73 73 73 73 73 73 73 73 73 73 73 0
1 73 73 73 73 73 73 73 74 74 74 74 74 74 74 0
1 74 74 74 74 74 74 74 74 74 74 74 74 74 74 0
1 74 74 74 74 74 74 74 74 74 74 74 74 74 74 0
1 74 74 74 74 74 74 75 75 75 75 75 75 75 75 0
1 75 75 75 75 75 75 75 75 75 75 75 75 75 75 0
1 75 76 76 76 76 76 76 76 76 76 76 76 76 76 0
1 76 76 76 76 76 76 76 76 76 76 76 76 76 76 0
1 76 76 76 76 77 77 77 77 77 77 77 77 77 77 0
1 77 77 77 77 77 77 77 77 77 77 77 77 77 77 0
1 77 77 77 77 77 78 78 78 78 78 78 78 78 78 0
1 78 78 78 78 78 78 78 78 78 78 78 78 78 78 0
1 79 79 79 79 79 79 79 79 79 79 79 79 79 79 0
1 79 79 79 79 79 79 79 79 79 79 79 79 79 79 0
1 79 79 79 80 80 80 80 80 80 80 80 80 80 80 0
1 80 80 80 80 80 80 80 80 80 80 80 80 80 80 0
1 80 80 80 80 80 81 81 81 81 81 81 81 81 81 0
1 81 81 81 81 81 81 81 81 81 81 81 81 81 81 0
1 81 81 81 81 81 81 81 81 81 81 81 81 81 82 0
1 82 82 82 82 82 82 82 82 82 82 82 82 82 82 0
1 82 82 82 82 82 82 82 82 82 82 82 82 82 82 0
1 83 83 83 83 83 83 83 83 83 83 83 83 83 83 0
1 83 83 83 83 83 83 83 83 83 83 84 84 84 84 0
1 84 84 84 84 84 84 84 84 84 84 84 84 84 84 0
1 84 84 84 84 84 84 84 85 85 85 85 85 85 85 0
1 85 85 85 85 85 85 85 85 85 85 85 85 85 85 0
1 85 85 85 85 85 85 85 85 85 85 85 85 86 86 0
1 86 86 86 86 86 86 86 86 86 86 86 86 86 86 0
1 86 86 86 86 86 86 86 86 87 87 87 87 87 87 0
1 87 87 87 87 87 87 87 87 87 87 87 87 87 87 0
1 87 87 87 87 87 88 88 88 88 88 88 88 88 88 0
1 88 88 88 88 88 88 88 88 88 88 88 88 88 88 0
1 88 88 89 89 89 89 89 89 89 89 89 89 89 89 0
1 89 89 89 89 89 89 89 89 89 89 89 89 89 89 0
1 89 89 90 90 90 90 90 90 90 90 90 90 90 90 0
1 90 90 90 90 90 90 90 90 91 91 91 91 91 91 0
1 91 91 91 91 91 91 91 91 91 91 91 91 91 91 0
1 91 91 91 91 91 91 91 91 91 91 91 91 91 92 0
1 92 92 92 92 92 92 92 92 92 92 92 92 92 92 0
1 92 92 92 92 92 92 93 93 93 93 93 93 93 93 0
1 93 93 93 93 93 93 93 93 93 93 93 93 93 93 0
1 93 93 93 93 93 93 93 93 93 94 94 94 94 94 0
1 94 94 94 94 94 94 94 94 94 94 94 94 94 94 0
1 94 94 94 94 94 94 94 94 94 94 95 95 95 95 0
1 95 95 95 95 95 95 95 95 95 95 95 95 95 95 0
1 95 95 95 95 95 95 95 95 95 95 95 95 95 95 0
1 96 96 96 96 96 96 96 96 96 96 96 96 96 96 0
1 96 96 96 96 96 96 96 96 96 96 96 97 97 97 0
1 97 97 97 97 97 97 97 97 97 97 97 97 97 97 0
1 97 97 97 97 97 97 97 97 97 97 98 98 98 98 0
1 98 98 98 98 98 98 98 98 98 98 98 98 98 98 0
1 98 98 98 98 98 98 98 98 98 98 98 98 98 99 0
1 99 99 99 99 99 99 99 99 99 99 99 99 99 99 0
1 99 99 99 99 99 99 99 99 99 99 99 99 99 99 0
1 99 99 99 99 99 99 100 100 100 100 100 100 100 100 0
1 100 100 100 100 100 100 100 100 100 100 100 100 100 100 0
1  0
1 161 193 202 310 347 376 403 455 550 552 662 686 733 865 0
1 880 895 898 923 952 1024 1043 1173 1233 1242 1363 1373 1403 1555 0
1 1583 1604 1618 1641 1725 1747 1752 1829 1919 1981 1987 2007 2065 2078 0
1 2130 2399 2429 2502 2504 2541 2552 2593 2651 2659 2851 2868 2988 0
1  0
1 140 271 308 335 401 443 469 473 479 528 550 598 663 730 0
1 817 911 933 947 950 954 1037 1100 1174 1201 1221 1225 1245 1323 0
1 1450 1547 1614 1645 1695 1739 1824 1842 1896 1916 1935 2008 2031 2164 0
1 2257 2258 2355 2356 2392 2450 2456 2496 2536 2554 2567 2599 2601 2653 0
1 2743 2758 2774 2862 2885 2941 2963 0
1  0
1 59 124 133 271 280 407 416 442 479 531 549 615 726 766 0
1 769 781 794 796 855 907 959 1055 1071 1073 1235 1305 1330 1352 0
1 1428 1438 1459 1549 1623 1676 1710 1719 1737 1762 1766 1878 1905 1943 0
1 1970 1982 2069 2073 2129 2152 2318 2447 2545 2629 2656 2711 2769 2803 0
1 2870 2903 2909 2921 2955 2985 0
1  0
1 151 223 272 326 329 559 645 667 689 745 752 822 963 973 0
1 1231 1241 1273 1343 1346 1408 1446 1545 1561 1562 1592 1771 1830 1955 0
1 2057 2062 2128 2158 2211 2257 2286 2289 2336 2354 2375 2405 2493 2803 0
1 2861 2940 0
1  0
1 126 249 309 317 396 409 476 499 504 537 619 695 743 894 0
1 1045 1073 1104 1109 1114 1203 1224 1279 1340 1351 1427 1439 1446 1469 0
1 1615 1655 1656 1767 1772 1797 1835 1880 1908 1919 2031 2042 2107 2113 0
1 2194 2253 2259 2346 2473 2677 2701 2772 2846 2858 2886 2895 2899 2907 0
1  0
1 122 145 284 376 468 469 495 516 572 620 635 665 772 824 0
1 877 907 945 962 1010 1016 1041 1070 1077 1087 1118 1139 1230 1306 0
1 1528 1561 1562 1577 1790 1796 1808 1894 2024 2155 2158 2176 2232 2386 0
1 2467 2468 2488 2589 2592 2619 2654 2676 2770 2832 2834 2868 2940 2970 0
1  0
1 132 161 184 347 394 397 468 498 583 618 668 740 818 831 0
1 880 906 940 993 1012 1053 1140 1146 1174 1187 1196 1211 1214 1227 0
1 1284 1433 1444 1478 1537 1566 1765 1826 1922 1923 1949 2047 2209 2243 0
1 2440 2486 2530 2731 2781 2795 2800 2826 2849 2871 2880 2979 2988 0
1  0
1 137 255 311 332 441 450 525 534 619 696 716 835 853 856 0
1 899 908 916 1052 1103 1179 1226 1272 1443 1498 1537 1596 1616 1682 0
1 1850 1870 1904 1909 1946 1987 2162 2247 2344 2353 2371 2424 2449 2490 0
1 2634 2683 2700 2795 2817 2909 2926 2972 0
1  0
1 39 91 93 116 157 166 214 254 473 496 524 551 584 585 0
1 693 737 782 888 923 962 1033 1038 1068 1098 1136 1161 1203 1218 0
1 1260 1312 1352 1418 1427 1432 1436 1535 1584 1595 1685 1782 1934 1987 0
1 2170 2199 2349 2395 2444 2654 2659 2661 2766 0
1  0
1 68 132 236 297 335 354 446 498 566 618 760 863 903 924 0
1 1014 1016 1072 1130 1138 1156 1165 1184 1345 1349 1365 1412 1512 1524 0
1 1620 1702 1714 1755 1763 1922 1952 1955 1969 1973 2004 2005 2116 2165 0
1 2187 2195 2231 2236 2268 2284 2299 2315 2321 2342 2681 2738 2743 2755 0
1 2884 2911 2940 2954 2979 0
1  0
1 109 242 314 449 464 517 540 549 669 672 806 830 960 982 0
1 1041 1092 1099 1101 1143 1167 1215 1264 1291 1321 1322 1384 1393 1418 0
1 1426 1543 1549 1572 1621 1632 1664 1751 1810 1826 1890 1954 2065 2080 0
1 2299 2393 2418 2504 2569 2591 2765 2993 0
1  0
1 160 174 192 234 285 331 338 343 374 429 440 486 560 572 0
1 749 789 812 886 891 902 928 970 997 1006 1079 1099 1103 1116 0
1 1186 1199 1234 1236 1256 1286 1322 1353 1378 1425 1426 1485 1502 1535 0
1 1565 1580 1581 1638 1653 1654 1758 1771 1868 1898 1966 1973 2043 2215 0
1 2245 2309 2348 2454 2518 2618 2623 2677 2686 2698 2846 2857 2947 0
1  0
1 225 280 301 344 588 690 728 757 772 798 834 907 962 982 0
1 1046 1054 1081 1125 1128 1222 1241 1254 1307 1586 1623 1706 1762 1801 0
1 1942 1981 2070 2140 2208 2265 2290 2292 2325 2375 2448 2459 2508 2551 0
1 2572 2655 2773 2852 2884 2946 0
1  0
1 50 72 128 163 315 332 407 558 576 665 692 695 723 795 0
1 845 979 985 1048 1057 1072 1203 1205 1207 1278 1345 1369 1418 1422 0
1 1495 1641 1645 1770 1814 1867 1900 1992 2006 2057 2124 2186 2197 2284 0
1 2506 2640 2687 2732 2799 2800 2842 2883 2885 2948 2960 0
1  0
1 81 84 102 104 192 224 308 331 350 387 433 438 450 539 0
1 615 617 640 691 704 732 748 791 973 1033 1055 1211 1219 1265 0
1 1320 1337 1367 1542 1653 1674 1791 1827 1853 1861 1865 1874 1918 1943 0
1 2007 2058 2083 2139 2188 2189 2199 2229 2305 2319 2348 2382 2423 2446 0
1 2565 2575 2598 2639 2702 2732 2754 2768 2792 2866 0
1  0
1 14 62 223 251 253 466 523 586 590 673 674 731 875 934 0
1 1024 1051 1069 1169 1249 1350 1400 1506 1539 1574 1587 1738 1750 1825 0
1 1920 1988 2137 2187 2191 2247 2288 2319 2381 2408 2424 2476 2518 2636 0
1 2707 2769 2824 2825 2844 2877 2915 2933 2944 2993 0
1  0
1 4 8 102 104 306 337 403 434 445 463 509 558 562 651 0
1 712 747 835 853 857 897 939 973 1099 1101 1189 1219 1339 1414 0
1 1512 1518 1651 1656 1723 1787 1801 1899 1958 1959 2180 2219 2220 2231 0
1 2294 2353 2470 2550 2588 2601 2662 2745 2909 2950 2991 0
1  0
1 10 55 62 63 72 134 149 245 308 428 447 512 792 812 0
1 877 897 967 986 1136 1317 1336 1385 1457 1584 1682 1725 1734 1744 0
1 1789 1800 1821 1852 1927 1928 1931 2043 2074 2086 2092 2136 2182 2188 0
1 2415 2551 2610 2634 2645 2652 2765 2838 2854 2919 2978 0
1  0
1 224 272 288 406 435 535 551 582 616 618 626 718 760 810 0
1 1013 1065 1071 1211 1235 1270 1275 1278 1302 1303 1364 1450 1453 1575 0
1 1585 1599 1622 1721 1738 1830 1854 1906 1931 1972 1985 2029 2033 2039 0
1 2107 2133 2260 2272 2298 2328 2357 2541 2622 2645 2753 2763 2792 2824 0
1 2906 0
